NAME : y-45_t.-417.tour
COMMENT : Length = -417
COMMENT : Found by LKH [Keld Helsgaun] Sun Apr 13 17:05:01 2025
TYPE : TOUR
DIMENSION : 45
TOUR_SECTION
1
24
31
37
23
21
13
22
30
9
16
39
7
15
32
4
41
25
44
19
17
11
43
42
6
45
26
14
2
35
27
36
34
3
5
18
29
8
40
20
38
12
33
10
28
-1
EOF
